10J3M/DAT/10J3MULL-15.dat
10 3
29.0994 29.0994
0.349 0.349
37.4599 37.4599
34.033 34.033
23.2749 23.2749
14.2186 14.2186
12.3161 12.3161
16.0458 16.0458
29.9105 29.9105
24.8255 24.8255
73.8442