10J3M/SOL/10J3MULL-15.sol
solution status: optimal solution found
objective value:                              73.8442
x#1#1                                               1 	(obj:0)
x#2#3                               0.999713467048661 	(obj:0)
x#3#2                               0.634422409029389 	(obj:0)
x#3#3                               0.365577590970611 	(obj:0)
x#4#2                                               1 	(obj:0)
x#5#3                                               1 	(obj:0)
x#6#1                                               1 	(obj:0)
x#7#3                                               1 	(obj:0)
x#8#2                                               1 	(obj:0)
x#9#1                                0.19059193259892 	(obj:0)
x#9#3                                0.80940806740108 	(obj:0)
x#10#1                                              1 	(obj:0)
z                                             73.8442 	(obj:1)
